\ This file has been generated by DOcplex
\ ENCODING=ISO-8859-1
\Problem name: wirelessDelay problem

Maximize
 obj: [ - 0.000784080000 a0_u0*a1_u0_x1 - 0.000784080000 a0_u0*a1_u1_x1
      - 0.001552320000 a0_u0*a1_u0_x2 - 0.001552320000 a0_u0*a1_u1_x2
      - 0.001552320000 a0_u0*a1_u0_x5 - 0.001552320000 a0_u0*a1_u1_x5
      - 0.002304960000 a0_u0*a1_u0_x6 - 0.002304960000 a0_u0*a1_u1_x6
      - 0.000007920000 a0_u0*a1_u0_x17 - 0.000007920000 a0_u0*a1_u1_x17
      - 0.076063680000 a0_u0*a1_u0_x18 - 0.076063680000 a0_u0*a1_u1_x18
      - 0.000015680000 a0_u0*a1_u0_x21 - 0.000015680000 a0_u0*a1_u1_x21
      - 0.112943040000 a0_u0*a1_u0_x22 - 0.112943040000 a0_u0*a1_u1_x22
      - 0.000007920000 a0_u0*a1_u0_x33 - 0.000007920000 a0_u0*a1_u1_x33
      - 0.000015680000 a0_u0*a1_u0_x34 - 0.000015680000 a0_u0*a1_u1_x34
      - 0.076063680000 a0_u0*a1_u0_x37 - 0.076063680000 a0_u0*a1_u1_x37
      - 0.112943040000 a0_u0*a1_u0_x38 - 0.112943040000 a0_u0*a1_u1_x38
      - 0.000000080000 a0_u0*a1_u0_x49 - 0.000000080000 a0_u0*a1_u1_x49
      - 0.000768320000 a0_u0*a1_u0_x50 - 0.000768320000 a0_u0*a1_u1_x50
      - 0.000768320000 a0_u0*a1_u0_x53 - 0.000768320000 a0_u0*a1_u1_x53
      - 5.534208960000 a0_u0*a1_u0_x54 - 5.534208960000 a0_u0*a1_u1_x54
      - 0.000784080000 a0_u1*a1_u0_x1 - 0.000784080000 a0_u1*a1_u1_x1
      - 0.001552320000 a0_u1*a1_u0_x2 - 0.001552320000 a0_u1*a1_u1_x2
      - 0.001552320000 a0_u1*a1_u0_x5 - 0.001552320000 a0_u1*a1_u1_x5
      - 0.002304960000 a0_u1*a1_u0_x6 - 0.002304960000 a0_u1*a1_u1_x6
      - 0.000007920000 a0_u1*a1_u0_x17 - 0.000007920000 a0_u1*a1_u1_x17
      - 0.076063680000 a0_u1*a1_u0_x18 - 0.076063680000 a0_u1*a1_u1_x18
      - 0.000015680000 a0_u1*a1_u0_x21 - 0.000015680000 a0_u1*a1_u1_x21
      - 0.112943040000 a0_u1*a1_u0_x22 - 0.112943040000 a0_u1*a1_u1_x22
      - 0.000007920000 a0_u1*a1_u0_x33 - 0.000007920000 a0_u1*a1_u1_x33
      - 0.000015680000 a0_u1*a1_u0_x34 - 0.000015680000 a0_u1*a1_u1_x34
      - 0.076063680000 a0_u1*a1_u0_x37 - 0.076063680000 a0_u1*a1_u1_x37
      - 0.112943040000 a0_u1*a1_u0_x38 - 0.112943040000 a0_u1*a1_u1_x38
      - 0.000000080000 a0_u1*a1_u0_x49 - 0.000000080000 a0_u1*a1_u1_x49
      - 0.000768320000 a0_u1*a1_u0_x50 - 0.000768320000 a0_u1*a1_u1_x50
      - 0.000768320000 a0_u1*a1_u0_x53 - 0.000768320000 a0_u1*a1_u1_x53
      - 5.534208960000 a0_u1*a1_u0_x54 - 5.534208960000 a0_u1*a1_u1_x54 ]/2
Subject To
 c1: - aj_u0_x0 - 3 aj_u1_x0 - 3 aj_u2_x0 - 4 aj_u3_x0 + a0_u0 + 3 a0_u1 >= 0
 c2: - aj_u0_x0 - 3 aj_u1_x0 - 3 aj_u2_x0 - 4 aj_u3_x0 + 3 a0_u0 + 4 a0_u1 >= 0
 c3: - 6 aj_u0_x1 - 6 aj_u1_x1 - 4 aj_u2_x1 - 3 aj_u3_x1 + 6 a0_u0 + 4 a0_u1
      >= 0
 c4: - 6 aj_u0_x1 - 6 aj_u1_x1 - 4 aj_u2_x1 - 3 aj_u3_x1 + 6 a0_u0 + 3 a0_u1
      >= 0
 c5: - 6 aj_u0_x2 - 2 aj_u1_x2 - 6 aj_u2_x2 - 5 aj_u3_x2 + 6 a0_u0 + 6 a0_u1
      >= 0
 c6: - 6 aj_u0_x2 - 2 aj_u1_x2 - 6 aj_u2_x2 - 5 aj_u3_x2 + 2 a0_u0 + 5 a0_u1
      >= 0
 c7: - aj_u0_x3 - 4 aj_u1_x3 - 5 aj_u2_x3 - 3 aj_u3_x3 + a0_u0 + 5 a0_u1 >= 0
 c8: - aj_u0_x3 - 4 aj_u1_x3 - 5 aj_u2_x3 - 3 aj_u3_x3 + 4 a0_u0 + 3 a0_u1 >= 0
 c9: - 4 aj_u0_x4 - 2 aj_u2_x4 - 6 aj_u3_x4 + 4 a0_u0 + 2 a0_u1 >= 0
 c10: - 4 aj_u0_x4 - 2 aj_u2_x4 - 6 aj_u3_x4 + 6 a0_u1 >= 0
 c11: - 5 aj_u0_x5 - aj_u1_x5 - aj_u2_x5 - aj_u3_x5 + 5 a0_u0 + a0_u1 >= 0
 c12: - 5 aj_u0_x5 - aj_u1_x5 - aj_u2_x5 - aj_u3_x5 + a0_u0 + a0_u1 >= 0
 c13: - 5 aj_u0_x6 - 2 aj_u1_x6 - 4 aj_u2_x6 - aj_u3_x6 + 5 a0_u0 + 4 a0_u1 >= 
      0
 c14: - 5 aj_u0_x6 - 2 aj_u1_x6 - 4 aj_u2_x6 - aj_u3_x6 + 2 a0_u0 + a0_u1 >= 0
 c15: - 5 aj_u0_x7 - 5 aj_u2_x7 - 4 aj_u3_x7 + 5 a0_u0 + 5 a0_u1 >= 0
 c16: - 5 aj_u0_x7 - 5 aj_u2_x7 - 4 aj_u3_x7 + 4 a0_u1 >= 0
 c17: - aj_u0_x8 - 4 aj_u1_x8 - aj_u2_x8 - 2 aj_u3_x8 + a0_u0 + a0_u1 >= 0
 c18: - aj_u0_x8 - 4 aj_u1_x8 - aj_u2_x8 - 2 aj_u3_x8 + 4 a0_u0 + 2 a0_u1 >= 0
 c19: - 6 aj_u0_x9 - 2 aj_u1_x9 - 3 aj_u2_x9 + 6 a0_u0 + 3 a0_u1 >= 0
 c20: - 6 aj_u0_x9 - 2 aj_u1_x9 - 3 aj_u2_x9 + 2 a0_u0 >= 0
 c21: - aj_u0_x10 - 5 aj_u1_x10 - 3 aj_u2_x10 - 5 aj_u3_x10 + a0_u0 + 3 a0_u1
       >= 0
 c22: - aj_u0_x10 - 5 aj_u1_x10 - 3 aj_u2_x10 - 5 aj_u3_x10 + 5 a0_u0 + 5 a0_u1
       >= 0
 c23: - aj_u0_x11 - aj_u1_x11 - aj_u2_x11 - 2 aj_u3_x11 + a0_u0 + a0_u1 >= 0
 c24: - aj_u0_x11 - aj_u1_x11 - aj_u2_x11 - 2 aj_u3_x11 + a0_u0 + 2 a0_u1 >= 0
 c25: - 2 aj_u0_x12 - 6 aj_u1_x12 - 3 aj_u2_x12 - 6 aj_u3_x12 + 2 a0_u0
      + 3 a0_u1 >= 0
 c26: - 2 aj_u0_x12 - 6 aj_u1_x12 - 3 aj_u2_x12 - 6 aj_u3_x12 + 6 a0_u0
      + 6 a0_u1 >= 0
 c27: - 6 aj_u0_x13 - 6 aj_u1_x13 - 5 aj_u2_x13 + 6 a0_u0 + 5 a0_u1 >= 0
 c28: - 6 aj_u0_x13 - 6 aj_u1_x13 - 5 aj_u2_x13 + 6 a0_u0 >= 0
 c29: - 2 aj_u0_x14 - aj_u1_x14 - 4 aj_u2_x14 - aj_u3_x14 + 2 a0_u0 + 4 a0_u1
       >= 0
 c30: - 2 aj_u0_x14 - aj_u1_x14 - 4 aj_u2_x14 - aj_u3_x14 + a0_u0 + a0_u1 >= 0
 c31: - 3 aj_u0_x15 - 5 aj_u1_x15 - 5 aj_u2_x15 - 4 aj_u3_x15 + 3 a0_u0
      + 5 a0_u1 >= 0
 c32: - 3 aj_u0_x15 - 5 aj_u1_x15 - 5 aj_u2_x15 - 4 aj_u3_x15 + 5 a0_u0
      + 4 a0_u1 >= 0
 c33: - 6 aj_u0_x16 - 5 aj_u2_x16 + 6 a0_u0 + 5 a0_u1 >= 0
 c34: - 6 aj_u0_x16 - 5 aj_u2_x16 >= 0
 c35: - 6 aj_u0_x17 - 4 aj_u1_x17 - aj_u2_x17 - aj_u3_x17 + 6 a0_u0 + a0_u1 >= 
      0
 c36: - 6 aj_u0_x17 - 4 aj_u1_x17 - aj_u2_x17 - aj_u3_x17 + 4 a0_u0 + a0_u1 >= 
      0
 c37: - 6 aj_u0_x18 - 6 aj_u1_x18 - 2 aj_u2_x18 - 2 aj_u3_x18 + 6 a0_u0
      + 2 a0_u1 >= 0
 c38: - 6 aj_u0_x18 - 6 aj_u1_x18 - 2 aj_u2_x18 - 2 aj_u3_x18 + 6 a0_u0
      + 2 a0_u1 >= 0
 c39: - 5 aj_u0_x19 - 2 aj_u2_x19 - 2 aj_u3_x19 + 5 a0_u0 + 2 a0_u1 >= 0
 c40: - 5 aj_u0_x19 - 2 aj_u2_x19 - 2 aj_u3_x19 + 2 a0_u1 >= 0
 c41: - 5 aj_u0_x20 - 5 aj_u1_x20 - 4 aj_u2_x20 - 5 aj_u3_x20 + 5 a0_u0
      + 4 a0_u1 >= 0
 c42: - 5 aj_u0_x20 - 5 aj_u1_x20 - 4 aj_u2_x20 - 5 aj_u3_x20 + 5 a0_u0
      + 5 a0_u1 >= 0
 c43: - 2 aj_u0_x21 - aj_u2_x21 - 5 aj_u3_x21 + 2 a0_u0 + a0_u1 >= 0
 c44: - 2 aj_u0_x21 - aj_u2_x21 - 5 aj_u3_x21 + 5 a0_u1 >= 0
 c45: - 2 aj_u0_x22 - 6 aj_u1_x22 - 2 aj_u2_x22 - 4 aj_u3_x22 + 2 a0_u0
      + 2 a0_u1 >= 0
 c46: - 2 aj_u0_x22 - 6 aj_u1_x22 - 2 aj_u2_x22 - 4 aj_u3_x22 + 6 a0_u0
      + 4 a0_u1 >= 0
 c47: - 6 aj_u0_x23 - 3 aj_u1_x23 - 3 aj_u2_x23 + 6 a0_u0 + 3 a0_u1 >= 0
 c48: - 6 aj_u0_x23 - 3 aj_u1_x23 - 3 aj_u2_x23 + 3 a0_u0 >= 0
 c49: - 2 aj_u0_x24 - 4 aj_u1_x24 - 2 aj_u2_x24 - 5 aj_u3_x24 + 2 a0_u0
      + 2 a0_u1 >= 0
 c50: - 2 aj_u0_x24 - 4 aj_u1_x24 - 2 aj_u2_x24 - 5 aj_u3_x24 + 4 a0_u0
      + 5 a0_u1 >= 0
 c51: - 5 aj_u0_x25 - 3 aj_u1_x25 - 3 aj_u2_x25 - 2 aj_u3_x25 + 5 a0_u0
      + 3 a0_u1 >= 0
 c52: - 5 aj_u0_x25 - 3 aj_u1_x25 - 3 aj_u2_x25 - 2 aj_u3_x25 + 3 a0_u0
      + 2 a0_u1 >= 0
 c53: - aj_u0_x26 - aj_u1_x26 - 4 aj_u2_x26 + a0_u0 + 4 a0_u1 >= 0
 c54: - aj_u0_x26 - aj_u1_x26 - 4 aj_u2_x26 + a0_u0 >= 0
 c55: - aj_u0_x27 - 5 aj_u2_x27 - 2 aj_u3_x27 + a0_u0 + 5 a0_u1 >= 0
 c56: - aj_u0_x27 - 5 aj_u2_x27 - 2 aj_u3_x27 + 2 a0_u1 >= 0
 c57: - aj_u0_x28 - 4 aj_u1_x28 - 5 aj_u2_x28 - 6 aj_u3_x28 + a0_u0 + 5 a0_u1
       >= 0
 c58: - aj_u0_x28 - 4 aj_u1_x28 - 5 aj_u2_x28 - 6 aj_u3_x28 + 4 a0_u0 + 6 a0_u1
       >= 0
 c59: - 2 aj_u0_x29 - 5 aj_u1_x29 - 2 aj_u2_x29 - 2 aj_u3_x29 + 2 a0_u0
      + 2 a0_u1 >= 0
 c60: - 2 aj_u0_x29 - 5 aj_u1_x29 - 2 aj_u2_x29 - 2 aj_u3_x29 + 5 a0_u0
      + 2 a0_u1 >= 0
 c61: - 3 aj_u0_x30 - 4 aj_u1_x30 - 3 aj_u2_x30 - 4 aj_u3_x30 + 3 a0_u0
      + 3 a0_u1 >= 0
 c62: - 3 aj_u0_x30 - 4 aj_u1_x30 - 3 aj_u2_x30 - 4 aj_u3_x30 + 4 a0_u0
      + 4 a0_u1 >= 0
 c63: - 5 aj_u0_x31 - 4 aj_u1_x31 - 6 aj_u2_x31 - 3 aj_u3_x31 + 5 a0_u0
      + 6 a0_u1 >= 0
 c64: - 5 aj_u0_x31 - 4 aj_u1_x31 - 6 aj_u2_x31 - 3 aj_u3_x31 + 4 a0_u0
      + 3 a0_u1 >= 0
 c65: - 3 aj_u0_x32 - 5 aj_u1_x32 - 6 aj_u3_x32 + 3 a0_u0 >= 0
 c66: - 3 aj_u0_x32 - 5 aj_u1_x32 - 6 aj_u3_x32 + 5 a0_u0 + 6 a0_u1 >= 0
 c67: - 2 aj_u0_x33 - aj_u1_x33 - 6 aj_u2_x33 - 6 aj_u3_x33 + 2 a0_u0 + 6 a0_u1
       >= 0
 c68: - 2 aj_u0_x33 - aj_u1_x33 - 6 aj_u2_x33 - 6 aj_u3_x33 + a0_u0 + 6 a0_u1
       >= 0
 c69: - 4 aj_u0_x34 - 4 aj_u1_x34 - 4 aj_u3_x34 + 4 a0_u0 >= 0
 c70: - 4 aj_u0_x34 - 4 aj_u1_x34 - 4 aj_u3_x34 + 4 a0_u0 + 4 a0_u1 >= 0
 c71: - aj_u1_x35 - 6 aj_u2_x35 + 6 a0_u1 >= 0
 c72: - aj_u1_x35 - 6 aj_u2_x35 + a0_u0 >= 0
 c73: - aj_u1_x36 - 5 aj_u2_x36 + 5 a0_u1 >= 0
 c74: - aj_u1_x36 - 5 aj_u2_x36 + a0_u0 >= 0
 c75: - 6 aj_u0_x37 - aj_u1_x37 - aj_u2_x37 - 4 aj_u3_x37 + 6 a0_u0 + a0_u1 >= 
      0
 c76: - 6 aj_u0_x37 - aj_u1_x37 - aj_u2_x37 - 4 aj_u3_x37 + a0_u0 + 4 a0_u1 >= 
      0
 c77: - 6 aj_u1_x38 - 5 aj_u2_x38 - 5 aj_u3_x38 + 5 a0_u1 >= 0
 c78: - 6 aj_u1_x38 - 5 aj_u2_x38 - 5 aj_u3_x38 + 6 a0_u0 + 5 a0_u1 >= 0
 c79: - 2 aj_u1_x39 - 6 aj_u3_x39 >= 0
 c80: - 2 aj_u1_x39 - 6 aj_u3_x39 + 2 a0_u0 + 6 a0_u1 >= 0
 c81: - 5 aj_u0_x40 - aj_u1_x40 - aj_u2_x40 - 5 aj_u3_x40 + 5 a0_u0 + a0_u1 >= 
      0
 c82: - 5 aj_u0_x40 - aj_u1_x40 - aj_u2_x40 - 5 aj_u3_x40 + a0_u0 + 5 a0_u1 >= 
      0
 c83: - aj_u0_x41 - 5 aj_u1_x41 - 3 aj_u2_x41 - 2 aj_u3_x41 + a0_u0 + 3 a0_u1
       >= 0
 c84: - aj_u0_x41 - 5 aj_u1_x41 - 3 aj_u2_x41 - 2 aj_u3_x41 + 5 a0_u0 + 2 a0_u1
       >= 0
 c85: - 3 aj_u0_x42 - 2 aj_u1_x42 - 2 aj_u2_x42 - 6 aj_u3_x42 + 3 a0_u0
      + 2 a0_u1 >= 0
 c86: - 3 aj_u0_x42 - 2 aj_u1_x42 - 2 aj_u2_x42 - 6 aj_u3_x42 + 2 a0_u0
      + 6 a0_u1 >= 0
 c87: - 4 aj_u0_x43 - aj_u1_x43 - 6 aj_u2_x43 - 6 aj_u3_x43 + 4 a0_u0 + 6 a0_u1
       >= 0
 c88: - 4 aj_u0_x43 - aj_u1_x43 - 6 aj_u2_x43 - 6 aj_u3_x43 + a0_u0 + 6 a0_u1
       >= 0
 c89: - 4 aj_u0_x44 - 5 aj_u1_x44 - 3 aj_u2_x44 - aj_u3_x44 + 4 a0_u0 + 3 a0_u1
       >= 0
 c90: - 4 aj_u0_x44 - 5 aj_u1_x44 - 3 aj_u2_x44 - aj_u3_x44 + 5 a0_u0 + a0_u1
       >= 0
 c91: - 5 aj_u0_x45 - 5 aj_u1_x45 - 3 aj_u2_x45 - 3 aj_u3_x45 + 5 a0_u0
      + 3 a0_u1 >= 0
 c92: - 5 aj_u0_x45 - 5 aj_u1_x45 - 3 aj_u2_x45 - 3 aj_u3_x45 + 5 a0_u0
      + 3 a0_u1 >= 0
 c93: - 5 aj_u0_x46 - 3 aj_u1_x46 - 2 aj_u2_x46 + 5 a0_u0 + 2 a0_u1 >= 0
 c94: - 5 aj_u0_x46 - 3 aj_u1_x46 - 2 aj_u2_x46 + 3 a0_u0 >= 0
 c95: - 3 aj_u1_x47 - 3 aj_u2_x47 - 6 aj_u3_x47 + 3 a0_u1 >= 0
 c96: - 3 aj_u1_x47 - 3 aj_u2_x47 - 6 aj_u3_x47 + 3 a0_u0 + 6 a0_u1 >= 0
 c97: - 4 aj_u0_x48 - 4 aj_u1_x48 - 2 aj_u2_x48 + 4 a0_u0 + 2 a0_u1 >= 0
 c98: - 4 aj_u0_x48 - 4 aj_u1_x48 - 2 aj_u2_x48 + 4 a0_u0 >= 0
 c99: - 6 aj_u0_x49 - aj_u1_x49 - 4 aj_u2_x49 - 2 aj_u3_x49 + 6 a0_u0 + 4 a0_u1
       >= 0
 c100: - 6 aj_u0_x49 - aj_u1_x49 - 4 aj_u2_x49 - 2 aj_u3_x49 + a0_u0 + 2 a0_u1
        >= 0
 c101: - 6 aj_u0_x50 - aj_u1_x50 - 2 aj_u2_x50 + 6 a0_u0 + 2 a0_u1 >= 0
 c102: - 6 aj_u0_x50 - aj_u1_x50 - 2 aj_u2_x50 + a0_u0 >= 0
 c103: - 3 aj_u0_x51 - 2 aj_u1_x51 - 5 aj_u3_x51 + 3 a0_u0 >= 0
 c104: - 3 aj_u0_x51 - 2 aj_u1_x51 - 5 aj_u3_x51 + 2 a0_u0 + 5 a0_u1 >= 0
 c105: - 6 aj_u0_x52 - 5 aj_u1_x52 - 6 aj_u2_x52 - 5 aj_u3_x52 + 6 a0_u0
       + 6 a0_u1 >= 0
 c106: - 6 aj_u0_x52 - 5 aj_u1_x52 - 6 aj_u2_x52 - 5 aj_u3_x52 + 5 a0_u0
       + 5 a0_u1 >= 0
 c107: - 4 aj_u0_x53 - aj_u1_x53 - aj_u2_x53 - aj_u3_x53 + 4 a0_u0 + a0_u1 >= 0
 c108: - 4 aj_u0_x53 - aj_u1_x53 - aj_u2_x53 - aj_u3_x53 + a0_u0 + a0_u1 >= 0
 c109: - 4 aj_u1_x54 - aj_u2_x54 - 3 aj_u3_x54 + a0_u1 >= 0
 c110: - 4 aj_u1_x54 - aj_u2_x54 - 3 aj_u3_x54 + 4 a0_u0 + 3 a0_u1 >= 0
 c111: - 4 aj_u0_x55 - 6 aj_u2_x55 - 2 aj_u3_x55 + 4 a0_u0 + 6 a0_u1 >= 0
 c112: - 4 aj_u0_x55 - 6 aj_u2_x55 - 2 aj_u3_x55 + 2 a0_u1 >= 0
 c113: - 2 aj_u0_x56 - aj_u2_x56 - 5 aj_u3_x56 + 2 a0_u0 + a0_u1 >= 0
 c114: - 2 aj_u0_x56 - aj_u2_x56 - 5 aj_u3_x56 + 5 a0_u1 >= 0
 c115: - 4 aj_u0_x57 - 2 aj_u2_x57 - 4 aj_u3_x57 + 4 a0_u0 + 2 a0_u1 >= 0
 c116: - 4 aj_u0_x57 - 2 aj_u2_x57 - 4 aj_u3_x57 + 4 a0_u1 >= 0
 c117: - 6 aj_u1_x58 - 2 aj_u3_x58 >= 0
 c118: - 6 aj_u1_x58 - 2 aj_u3_x58 + 6 a0_u0 + 2 a0_u1 >= 0
 c119: - 6 aj_u0_x59 - 5 aj_u1_x59 - 4 aj_u2_x59 + 6 a0_u0 + 4 a0_u1 >= 0
 c120: - 6 aj_u0_x59 - 5 aj_u1_x59 - 4 aj_u2_x59 + 5 a0_u0 >= 0
 c121: - aj_u0_x60 - 2 aj_u3_x60 + a0_u0 >= 0
 c122: - aj_u0_x60 - 2 aj_u3_x60 + 2 a0_u1 >= 0
 c123: - 3 aj_u0_x61 - 6 aj_u1_x61 - aj_u2_x61 - 3 aj_u3_x61 + 3 a0_u0 + a0_u1
        >= 0
 c124: - 3 aj_u0_x61 - 6 aj_u1_x61 - aj_u2_x61 - 3 aj_u3_x61 + 6 a0_u0 + 3 a0_u1
        >= 0
 c125: - 2 aj_u0_x62 - 4 aj_u2_x62 - 5 aj_u3_x62 + 2 a0_u0 + 4 a0_u1 >= 0
 c126: - 2 aj_u0_x62 - 4 aj_u2_x62 - 5 aj_u3_x62 + 5 a0_u1 >= 0
 c127: - 6 aj_u0_x63 - 4 aj_u1_x63 - 6 aj_u2_x63 - 2 aj_u3_x63 + 6 a0_u0
       + 6 a0_u1 >= 0
 c128: - 6 aj_u0_x63 - 4 aj_u1_x63 - 6 aj_u2_x63 - 2 aj_u3_x63 + 4 a0_u0
       + 2 a0_u1 >= 0
 c129: a0_u0 + a0_u1 = 1
 c130: a1_u0_x0 + a1_u1_x0 = 1
 c131: aj_u0_x0 + aj_u1_x0 + aj_u2_x0 + aj_u3_x0 = 1
 c132: a1_u0_x1 + a1_u1_x1 = 1
 c133: aj_u0_x1 + aj_u1_x1 + aj_u2_x1 + aj_u3_x1 = 1
 c134: a1_u0_x2 + a1_u1_x2 = 1
 c135: aj_u0_x2 + aj_u1_x2 + aj_u2_x2 + aj_u3_x2 = 1
 c136: a1_u0_x3 + a1_u1_x3 = 1
 c137: aj_u0_x3 + aj_u1_x3 + aj_u2_x3 + aj_u3_x3 = 1
 c138: a1_u0_x4 + a1_u1_x4 = 1
 c139: aj_u0_x4 + aj_u1_x4 + aj_u2_x4 + aj_u3_x4 = 1
 c140: a1_u0_x5 + a1_u1_x5 = 1
 c141: aj_u0_x5 + aj_u1_x5 + aj_u2_x5 + aj_u3_x5 = 1
 c142: a1_u0_x6 + a1_u1_x6 = 1
 c143: aj_u0_x6 + aj_u1_x6 + aj_u2_x6 + aj_u3_x6 = 1
 c144: a1_u0_x7 + a1_u1_x7 = 1
 c145: aj_u0_x7 + aj_u1_x7 + aj_u2_x7 + aj_u3_x7 = 1
 c146: a1_u0_x8 + a1_u1_x8 = 1
 c147: aj_u0_x8 + aj_u1_x8 + aj_u2_x8 + aj_u3_x8 = 1
 c148: a1_u0_x9 + a1_u1_x9 = 1
 c149: aj_u0_x9 + aj_u1_x9 + aj_u2_x9 + aj_u3_x9 = 1
 c150: a1_u0_x10 + a1_u1_x10 = 1
 c151: aj_u0_x10 + aj_u1_x10 + aj_u2_x10 + aj_u3_x10 = 1
 c152: a1_u0_x11 + a1_u1_x11 = 1
 c153: aj_u0_x11 + aj_u1_x11 + aj_u2_x11 + aj_u3_x11 = 1
 c154: a1_u0_x12 + a1_u1_x12 = 1
 c155: aj_u0_x12 + aj_u1_x12 + aj_u2_x12 + aj_u3_x12 = 1
 c156: a1_u0_x13 + a1_u1_x13 = 1
 c157: aj_u0_x13 + aj_u1_x13 + aj_u2_x13 + aj_u3_x13 = 1
 c158: a1_u0_x14 + a1_u1_x14 = 1
 c159: aj_u0_x14 + aj_u1_x14 + aj_u2_x14 + aj_u3_x14 = 1
 c160: a1_u0_x15 + a1_u1_x15 = 1
 c161: aj_u0_x15 + aj_u1_x15 + aj_u2_x15 + aj_u3_x15 = 1
 c162: a1_u0_x16 + a1_u1_x16 = 1
 c163: aj_u0_x16 + aj_u1_x16 + aj_u2_x16 + aj_u3_x16 = 1
 c164: a1_u0_x17 + a1_u1_x17 = 1
 c165: aj_u0_x17 + aj_u1_x17 + aj_u2_x17 + aj_u3_x17 = 1
 c166: a1_u0_x18 + a1_u1_x18 = 1
 c167: aj_u0_x18 + aj_u1_x18 + aj_u2_x18 + aj_u3_x18 = 1
 c168: a1_u0_x19 + a1_u1_x19 = 1
 c169: aj_u0_x19 + aj_u1_x19 + aj_u2_x19 + aj_u3_x19 = 1
 c170: a1_u0_x20 + a1_u1_x20 = 1
 c171: aj_u0_x20 + aj_u1_x20 + aj_u2_x20 + aj_u3_x20 = 1
 c172: a1_u0_x21 + a1_u1_x21 = 1
 c173: aj_u0_x21 + aj_u1_x21 + aj_u2_x21 + aj_u3_x21 = 1
 c174: a1_u0_x22 + a1_u1_x22 = 1
 c175: aj_u0_x22 + aj_u1_x22 + aj_u2_x22 + aj_u3_x22 = 1
 c176: a1_u0_x23 + a1_u1_x23 = 1
 c177: aj_u0_x23 + aj_u1_x23 + aj_u2_x23 + aj_u3_x23 = 1
 c178: a1_u0_x24 + a1_u1_x24 = 1
 c179: aj_u0_x24 + aj_u1_x24 + aj_u2_x24 + aj_u3_x24 = 1
 c180: a1_u0_x25 + a1_u1_x25 = 1
 c181: aj_u0_x25 + aj_u1_x25 + aj_u2_x25 + aj_u3_x25 = 1
 c182: a1_u0_x26 + a1_u1_x26 = 1
 c183: aj_u0_x26 + aj_u1_x26 + aj_u2_x26 + aj_u3_x26 = 1
 c184: a1_u0_x27 + a1_u1_x27 = 1
 c185: aj_u0_x27 + aj_u1_x27 + aj_u2_x27 + aj_u3_x27 = 1
 c186: a1_u0_x28 + a1_u1_x28 = 1
 c187: aj_u0_x28 + aj_u1_x28 + aj_u2_x28 + aj_u3_x28 = 1
 c188: a1_u0_x29 + a1_u1_x29 = 1
 c189: aj_u0_x29 + aj_u1_x29 + aj_u2_x29 + aj_u3_x29 = 1
 c190: a1_u0_x30 + a1_u1_x30 = 1
 c191: aj_u0_x30 + aj_u1_x30 + aj_u2_x30 + aj_u3_x30 = 1
 c192: a1_u0_x31 + a1_u1_x31 = 1
 c193: aj_u0_x31 + aj_u1_x31 + aj_u2_x31 + aj_u3_x31 = 1
 c194: a1_u0_x32 + a1_u1_x32 = 1
 c195: aj_u0_x32 + aj_u1_x32 + aj_u2_x32 + aj_u3_x32 = 1
 c196: a1_u0_x33 + a1_u1_x33 = 1
 c197: aj_u0_x33 + aj_u1_x33 + aj_u2_x33 + aj_u3_x33 = 1
 c198: a1_u0_x34 + a1_u1_x34 = 1
 c199: aj_u0_x34 + aj_u1_x34 + aj_u2_x34 + aj_u3_x34 = 1
 c200: a1_u0_x35 + a1_u1_x35 = 1
 c201: aj_u0_x35 + aj_u1_x35 + aj_u2_x35 + aj_u3_x35 = 1
 c202: a1_u0_x36 + a1_u1_x36 = 1
 c203: aj_u0_x36 + aj_u1_x36 + aj_u2_x36 + aj_u3_x36 = 1
 c204: a1_u0_x37 + a1_u1_x37 = 1
 c205: aj_u0_x37 + aj_u1_x37 + aj_u2_x37 + aj_u3_x37 = 1
 c206: a1_u0_x38 + a1_u1_x38 = 1
 c207: aj_u0_x38 + aj_u1_x38 + aj_u2_x38 + aj_u3_x38 = 1
 c208: a1_u0_x39 + a1_u1_x39 = 1
 c209: aj_u0_x39 + aj_u1_x39 + aj_u2_x39 + aj_u3_x39 = 1
 c210: a1_u0_x40 + a1_u1_x40 = 1
 c211: aj_u0_x40 + aj_u1_x40 + aj_u2_x40 + aj_u3_x40 = 1
 c212: a1_u0_x41 + a1_u1_x41 = 1
 c213: aj_u0_x41 + aj_u1_x41 + aj_u2_x41 + aj_u3_x41 = 1
 c214: a1_u0_x42 + a1_u1_x42 = 1
 c215: aj_u0_x42 + aj_u1_x42 + aj_u2_x42 + aj_u3_x42 = 1
 c216: a1_u0_x43 + a1_u1_x43 = 1
 c217: aj_u0_x43 + aj_u1_x43 + aj_u2_x43 + aj_u3_x43 = 1
 c218: a1_u0_x44 + a1_u1_x44 = 1
 c219: aj_u0_x44 + aj_u1_x44 + aj_u2_x44 + aj_u3_x44 = 1
 c220: a1_u0_x45 + a1_u1_x45 = 1
 c221: aj_u0_x45 + aj_u1_x45 + aj_u2_x45 + aj_u3_x45 = 1
 c222: a1_u0_x46 + a1_u1_x46 = 1
 c223: aj_u0_x46 + aj_u1_x46 + aj_u2_x46 + aj_u3_x46 = 1
 c224: a1_u0_x47 + a1_u1_x47 = 1
 c225: aj_u0_x47 + aj_u1_x47 + aj_u2_x47 + aj_u3_x47 = 1
 c226: a1_u0_x48 + a1_u1_x48 = 1
 c227: aj_u0_x48 + aj_u1_x48 + aj_u2_x48 + aj_u3_x48 = 1
 c228: a1_u0_x49 + a1_u1_x49 = 1
 c229: aj_u0_x49 + aj_u1_x49 + aj_u2_x49 + aj_u3_x49 = 1
 c230: a1_u0_x50 + a1_u1_x50 = 1
 c231: aj_u0_x50 + aj_u1_x50 + aj_u2_x50 + aj_u3_x50 = 1
 c232: a1_u0_x51 + a1_u1_x51 = 1
 c233: aj_u0_x51 + aj_u1_x51 + aj_u2_x51 + aj_u3_x51 = 1
 c234: a1_u0_x52 + a1_u1_x52 = 1
 c235: aj_u0_x52 + aj_u1_x52 + aj_u2_x52 + aj_u3_x52 = 1
 c236: a1_u0_x53 + a1_u1_x53 = 1
 c237: aj_u0_x53 + aj_u1_x53 + aj_u2_x53 + aj_u3_x53 = 1
 c238: a1_u0_x54 + a1_u1_x54 = 1
 c239: aj_u0_x54 + aj_u1_x54 + aj_u2_x54 + aj_u3_x54 = 1
 c240: a1_u0_x55 + a1_u1_x55 = 1
 c241: aj_u0_x55 + aj_u1_x55 + aj_u2_x55 + aj_u3_x55 = 1
 c242: a1_u0_x56 + a1_u1_x56 = 1
 c243: aj_u0_x56 + aj_u1_x56 + aj_u2_x56 + aj_u3_x56 = 1
 c244: a1_u0_x57 + a1_u1_x57 = 1
 c245: aj_u0_x57 + aj_u1_x57 + aj_u2_x57 + aj_u3_x57 = 1
 c246: a1_u0_x58 + a1_u1_x58 = 1
 c247: aj_u0_x58 + aj_u1_x58 + aj_u2_x58 + aj_u3_x58 = 1
 c248: a1_u0_x59 + a1_u1_x59 = 1
 c249: aj_u0_x59 + aj_u1_x59 + aj_u2_x59 + aj_u3_x59 = 1
 c250: a1_u0_x60 + a1_u1_x60 = 1
 c251: aj_u0_x60 + aj_u1_x60 + aj_u2_x60 + aj_u3_x60 = 1
 c252: a1_u0_x61 + a1_u1_x61 = 1
 c253: aj_u0_x61 + aj_u1_x61 + aj_u2_x61 + aj_u3_x61 = 1
 c254: a1_u0_x62 + a1_u1_x62 = 1
 c255: aj_u0_x62 + aj_u1_x62 + aj_u2_x62 + aj_u3_x62 = 1
 c256: a1_u0_x63 + a1_u1_x63 = 1
 c257: aj_u0_x63 + aj_u1_x63 + aj_u2_x63 + aj_u3_x63 = 1
 c258: aj_u0_x0 + aj_u1_x0 - a0_u0 = 0
 c259: aj_u2_x0 + aj_u3_x0 - a0_u1 = 0
 c260: aj_u0_x1 + aj_u1_x1 - a0_u0 = 0
 c261: aj_u2_x1 + aj_u3_x1 - a0_u1 = 0
 c262: aj_u0_x2 + aj_u1_x2 - a0_u0 = 0
 c263: aj_u2_x2 + aj_u3_x2 - a0_u1 = 0
 c264: aj_u0_x3 + aj_u1_x3 - a0_u0 = 0
 c265: aj_u2_x3 + aj_u3_x3 - a0_u1 = 0
 c266: aj_u0_x4 + aj_u1_x4 - a0_u0 = 0
 c267: aj_u2_x4 + aj_u3_x4 - a0_u1 = 0
 c268: aj_u0_x5 + aj_u1_x5 - a0_u0 = 0
 c269: aj_u2_x5 + aj_u3_x5 - a0_u1 = 0
 c270: aj_u0_x6 + aj_u1_x6 - a0_u0 = 0
 c271: aj_u2_x6 + aj_u3_x6 - a0_u1 = 0
 c272: aj_u0_x7 + aj_u1_x7 - a0_u0 = 0
 c273: aj_u2_x7 + aj_u3_x7 - a0_u1 = 0
 c274: aj_u0_x8 + aj_u1_x8 - a0_u0 = 0
 c275: aj_u2_x8 + aj_u3_x8 - a0_u1 = 0
 c276: aj_u0_x9 + aj_u1_x9 - a0_u0 = 0
 c277: aj_u2_x9 + aj_u3_x9 - a0_u1 = 0
 c278: aj_u0_x10 + aj_u1_x10 - a0_u0 = 0
 c279: aj_u2_x10 + aj_u3_x10 - a0_u1 = 0
 c280: aj_u0_x11 + aj_u1_x11 - a0_u0 = 0
 c281: aj_u2_x11 + aj_u3_x11 - a0_u1 = 0
 c282: aj_u0_x12 + aj_u1_x12 - a0_u0 = 0
 c283: aj_u2_x12 + aj_u3_x12 - a0_u1 = 0
 c284: aj_u0_x13 + aj_u1_x13 - a0_u0 = 0
 c285: aj_u2_x13 + aj_u3_x13 - a0_u1 = 0
 c286: aj_u0_x14 + aj_u1_x14 - a0_u0 = 0
 c287: aj_u2_x14 + aj_u3_x14 - a0_u1 = 0
 c288: aj_u0_x15 + aj_u1_x15 - a0_u0 = 0
 c289: aj_u2_x15 + aj_u3_x15 - a0_u1 = 0
 c290: aj_u0_x16 + aj_u1_x16 - a0_u0 = 0
 c291: aj_u2_x16 + aj_u3_x16 - a0_u1 = 0
 c292: aj_u0_x17 + aj_u1_x17 - a0_u0 = 0
 c293: aj_u2_x17 + aj_u3_x17 - a0_u1 = 0
 c294: aj_u0_x18 + aj_u1_x18 - a0_u0 = 0
 c295: aj_u2_x18 + aj_u3_x18 - a0_u1 = 0
 c296: aj_u0_x19 + aj_u1_x19 - a0_u0 = 0
 c297: aj_u2_x19 + aj_u3_x19 - a0_u1 = 0
 c298: aj_u0_x20 + aj_u1_x20 - a0_u0 = 0
 c299: aj_u2_x20 + aj_u3_x20 - a0_u1 = 0
 c300: aj_u0_x21 + aj_u1_x21 - a0_u0 = 0
 c301: aj_u2_x21 + aj_u3_x21 - a0_u1 = 0
 c302: aj_u0_x22 + aj_u1_x22 - a0_u0 = 0
 c303: aj_u2_x22 + aj_u3_x22 - a0_u1 = 0
 c304: aj_u0_x23 + aj_u1_x23 - a0_u0 = 0
 c305: aj_u2_x23 + aj_u3_x23 - a0_u1 = 0
 c306: aj_u0_x24 + aj_u1_x24 - a0_u0 = 0
 c307: aj_u2_x24 + aj_u3_x24 - a0_u1 = 0
 c308: aj_u0_x25 + aj_u1_x25 - a0_u0 = 0
 c309: aj_u2_x25 + aj_u3_x25 - a0_u1 = 0
 c310: aj_u0_x26 + aj_u1_x26 - a0_u0 = 0
 c311: aj_u2_x26 + aj_u3_x26 - a0_u1 = 0
 c312: aj_u0_x27 + aj_u1_x27 - a0_u0 = 0
 c313: aj_u2_x27 + aj_u3_x27 - a0_u1 = 0
 c314: aj_u0_x28 + aj_u1_x28 - a0_u0 = 0
 c315: aj_u2_x28 + aj_u3_x28 - a0_u1 = 0
 c316: aj_u0_x29 + aj_u1_x29 - a0_u0 = 0
 c317: aj_u2_x29 + aj_u3_x29 - a0_u1 = 0
 c318: aj_u0_x30 + aj_u1_x30 - a0_u0 = 0
 c319: aj_u2_x30 + aj_u3_x30 - a0_u1 = 0
 c320: aj_u0_x31 + aj_u1_x31 - a0_u0 = 0
 c321: aj_u2_x31 + aj_u3_x31 - a0_u1 = 0
 c322: aj_u0_x32 + aj_u1_x32 - a0_u0 = 0
 c323: aj_u2_x32 + aj_u3_x32 - a0_u1 = 0
 c324: aj_u0_x33 + aj_u1_x33 - a0_u0 = 0
 c325: aj_u2_x33 + aj_u3_x33 - a0_u1 = 0
 c326: aj_u0_x34 + aj_u1_x34 - a0_u0 = 0
 c327: aj_u2_x34 + aj_u3_x34 - a0_u1 = 0
 c328: aj_u0_x35 + aj_u1_x35 - a0_u0 = 0
 c329: aj_u2_x35 + aj_u3_x35 - a0_u1 = 0
 c330: aj_u0_x36 + aj_u1_x36 - a0_u0 = 0
 c331: aj_u2_x36 + aj_u3_x36 - a0_u1 = 0
 c332: aj_u0_x37 + aj_u1_x37 - a0_u0 = 0
 c333: aj_u2_x37 + aj_u3_x37 - a0_u1 = 0
 c334: aj_u0_x38 + aj_u1_x38 - a0_u0 = 0
 c335: aj_u2_x38 + aj_u3_x38 - a0_u1 = 0
 c336: aj_u0_x39 + aj_u1_x39 - a0_u0 = 0
 c337: aj_u2_x39 + aj_u3_x39 - a0_u1 = 0
 c338: aj_u0_x40 + aj_u1_x40 - a0_u0 = 0
 c339: aj_u2_x40 + aj_u3_x40 - a0_u1 = 0
 c340: aj_u0_x41 + aj_u1_x41 - a0_u0 = 0
 c341: aj_u2_x41 + aj_u3_x41 - a0_u1 = 0
 c342: aj_u0_x42 + aj_u1_x42 - a0_u0 = 0
 c343: aj_u2_x42 + aj_u3_x42 - a0_u1 = 0
 c344: aj_u0_x43 + aj_u1_x43 - a0_u0 = 0
 c345: aj_u2_x43 + aj_u3_x43 - a0_u1 = 0
 c346: aj_u0_x44 + aj_u1_x44 - a0_u0 = 0
 c347: aj_u2_x44 + aj_u3_x44 - a0_u1 = 0
 c348: aj_u0_x45 + aj_u1_x45 - a0_u0 = 0
 c349: aj_u2_x45 + aj_u3_x45 - a0_u1 = 0
 c350: aj_u0_x46 + aj_u1_x46 - a0_u0 = 0
 c351: aj_u2_x46 + aj_u3_x46 - a0_u1 = 0
 c352: aj_u0_x47 + aj_u1_x47 - a0_u0 = 0
 c353: aj_u2_x47 + aj_u3_x47 - a0_u1 = 0
 c354: aj_u0_x48 + aj_u1_x48 - a0_u0 = 0
 c355: aj_u2_x48 + aj_u3_x48 - a0_u1 = 0
 c356: aj_u0_x49 + aj_u1_x49 - a0_u0 = 0
 c357: aj_u2_x49 + aj_u3_x49 - a0_u1 = 0
 c358: aj_u0_x50 + aj_u1_x50 - a0_u0 = 0
 c359: aj_u2_x50 + aj_u3_x50 - a0_u1 = 0
 c360: aj_u0_x51 + aj_u1_x51 - a0_u0 = 0
 c361: aj_u2_x51 + aj_u3_x51 - a0_u1 = 0
 c362: aj_u0_x52 + aj_u1_x52 - a0_u0 = 0
 c363: aj_u2_x52 + aj_u3_x52 - a0_u1 = 0
 c364: aj_u0_x53 + aj_u1_x53 - a0_u0 = 0
 c365: aj_u2_x53 + aj_u3_x53 - a0_u1 = 0
 c366: aj_u0_x54 + aj_u1_x54 - a0_u0 = 0
 c367: aj_u2_x54 + aj_u3_x54 - a0_u1 = 0
 c368: aj_u0_x55 + aj_u1_x55 - a0_u0 = 0
 c369: aj_u2_x55 + aj_u3_x55 - a0_u1 = 0
 c370: aj_u0_x56 + aj_u1_x56 - a0_u0 = 0
 c371: aj_u2_x56 + aj_u3_x56 - a0_u1 = 0
 c372: aj_u0_x57 + aj_u1_x57 - a0_u0 = 0
 c373: aj_u2_x57 + aj_u3_x57 - a0_u1 = 0
 c374: aj_u0_x58 + aj_u1_x58 - a0_u0 = 0
 c375: aj_u2_x58 + aj_u3_x58 - a0_u1 = 0
 c376: aj_u0_x59 + aj_u1_x59 - a0_u0 = 0
 c377: aj_u2_x59 + aj_u3_x59 - a0_u1 = 0
 c378: aj_u0_x60 + aj_u1_x60 - a0_u0 = 0
 c379: aj_u2_x60 + aj_u3_x60 - a0_u1 = 0
 c380: aj_u0_x61 + aj_u1_x61 - a0_u0 = 0
 c381: aj_u2_x61 + aj_u3_x61 - a0_u1 = 0
 c382: aj_u0_x62 + aj_u1_x62 - a0_u0 = 0
 c383: aj_u2_x62 + aj_u3_x62 - a0_u1 = 0
 c384: aj_u0_x63 + aj_u1_x63 - a0_u0 = 0
 c385: aj_u2_x63 + aj_u3_x63 - a0_u1 = 0
 c386: aj_u0_x0 + aj_u2_x0 - a1_u0_x0 = 0
 c387: aj_u1_x0 + aj_u3_x0 - a1_u1_x0 = 0
 c388: aj_u0_x1 + aj_u2_x1 - a1_u0_x1 = 0
 c389: aj_u1_x1 + aj_u3_x1 - a1_u1_x1 = 0
 c390: aj_u0_x2 + aj_u2_x2 - a1_u0_x2 = 0
 c391: aj_u1_x2 + aj_u3_x2 - a1_u1_x2 = 0
 c392: aj_u0_x3 + aj_u2_x3 - a1_u0_x3 = 0
 c393: aj_u1_x3 + aj_u3_x3 - a1_u1_x3 = 0
 c394: aj_u0_x4 + aj_u2_x4 - a1_u0_x4 = 0
 c395: aj_u1_x4 + aj_u3_x4 - a1_u1_x4 = 0
 c396: aj_u0_x5 + aj_u2_x5 - a1_u0_x5 = 0
 c397: aj_u1_x5 + aj_u3_x5 - a1_u1_x5 = 0
 c398: aj_u0_x6 + aj_u2_x6 - a1_u0_x6 = 0
 c399: aj_u1_x6 + aj_u3_x6 - a1_u1_x6 = 0
 c400: aj_u0_x7 + aj_u2_x7 - a1_u0_x7 = 0
 c401: aj_u1_x7 + aj_u3_x7 - a1_u1_x7 = 0
 c402: aj_u0_x8 + aj_u2_x8 - a1_u0_x8 = 0
 c403: aj_u1_x8 + aj_u3_x8 - a1_u1_x8 = 0
 c404: aj_u0_x9 + aj_u2_x9 - a1_u0_x9 = 0
 c405: aj_u1_x9 + aj_u3_x9 - a1_u1_x9 = 0
 c406: aj_u0_x10 + aj_u2_x10 - a1_u0_x10 = 0
 c407: aj_u1_x10 + aj_u3_x10 - a1_u1_x10 = 0
 c408: aj_u0_x11 + aj_u2_x11 - a1_u0_x11 = 0
 c409: aj_u1_x11 + aj_u3_x11 - a1_u1_x11 = 0
 c410: aj_u0_x12 + aj_u2_x12 - a1_u0_x12 = 0
 c411: aj_u1_x12 + aj_u3_x12 - a1_u1_x12 = 0
 c412: aj_u0_x13 + aj_u2_x13 - a1_u0_x13 = 0
 c413: aj_u1_x13 + aj_u3_x13 - a1_u1_x13 = 0
 c414: aj_u0_x14 + aj_u2_x14 - a1_u0_x14 = 0
 c415: aj_u1_x14 + aj_u3_x14 - a1_u1_x14 = 0
 c416: aj_u0_x15 + aj_u2_x15 - a1_u0_x15 = 0
 c417: aj_u1_x15 + aj_u3_x15 - a1_u1_x15 = 0
 c418: aj_u0_x16 + aj_u2_x16 - a1_u0_x16 = 0
 c419: aj_u1_x16 + aj_u3_x16 - a1_u1_x16 = 0
 c420: aj_u0_x17 + aj_u2_x17 - a1_u0_x17 = 0
 c421: aj_u1_x17 + aj_u3_x17 - a1_u1_x17 = 0
 c422: aj_u0_x18 + aj_u2_x18 - a1_u0_x18 = 0
 c423: aj_u1_x18 + aj_u3_x18 - a1_u1_x18 = 0
 c424: aj_u0_x19 + aj_u2_x19 - a1_u0_x19 = 0
 c425: aj_u1_x19 + aj_u3_x19 - a1_u1_x19 = 0
 c426: aj_u0_x20 + aj_u2_x20 - a1_u0_x20 = 0
 c427: aj_u1_x20 + aj_u3_x20 - a1_u1_x20 = 0
 c428: aj_u0_x21 + aj_u2_x21 - a1_u0_x21 = 0
 c429: aj_u1_x21 + aj_u3_x21 - a1_u1_x21 = 0
 c430: aj_u0_x22 + aj_u2_x22 - a1_u0_x22 = 0
 c431: aj_u1_x22 + aj_u3_x22 - a1_u1_x22 = 0
 c432: aj_u0_x23 + aj_u2_x23 - a1_u0_x23 = 0
 c433: aj_u1_x23 + aj_u3_x23 - a1_u1_x23 = 0
 c434: aj_u0_x24 + aj_u2_x24 - a1_u0_x24 = 0
 c435: aj_u1_x24 + aj_u3_x24 - a1_u1_x24 = 0
 c436: aj_u0_x25 + aj_u2_x25 - a1_u0_x25 = 0
 c437: aj_u1_x25 + aj_u3_x25 - a1_u1_x25 = 0
 c438: aj_u0_x26 + aj_u2_x26 - a1_u0_x26 = 0
 c439: aj_u1_x26 + aj_u3_x26 - a1_u1_x26 = 0
 c440: aj_u0_x27 + aj_u2_x27 - a1_u0_x27 = 0
 c441: aj_u1_x27 + aj_u3_x27 - a1_u1_x27 = 0
 c442: aj_u0_x28 + aj_u2_x28 - a1_u0_x28 = 0
 c443: aj_u1_x28 + aj_u3_x28 - a1_u1_x28 = 0
 c444: aj_u0_x29 + aj_u2_x29 - a1_u0_x29 = 0
 c445: aj_u1_x29 + aj_u3_x29 - a1_u1_x29 = 0
 c446: aj_u0_x30 + aj_u2_x30 - a1_u0_x30 = 0
 c447: aj_u1_x30 + aj_u3_x30 - a1_u1_x30 = 0
 c448: aj_u0_x31 + aj_u2_x31 - a1_u0_x31 = 0
 c449: aj_u1_x31 + aj_u3_x31 - a1_u1_x31 = 0
 c450: aj_u0_x32 + aj_u2_x32 - a1_u0_x32 = 0
 c451: aj_u1_x32 + aj_u3_x32 - a1_u1_x32 = 0
 c452: aj_u0_x33 + aj_u2_x33 - a1_u0_x33 = 0
 c453: aj_u1_x33 + aj_u3_x33 - a1_u1_x33 = 0
 c454: aj_u0_x34 + aj_u2_x34 - a1_u0_x34 = 0
 c455: aj_u1_x34 + aj_u3_x34 - a1_u1_x34 = 0
 c456: aj_u0_x35 + aj_u2_x35 - a1_u0_x35 = 0
 c457: aj_u1_x35 + aj_u3_x35 - a1_u1_x35 = 0
 c458: aj_u0_x36 + aj_u2_x36 - a1_u0_x36 = 0
 c459: aj_u1_x36 + aj_u3_x36 - a1_u1_x36 = 0
 c460: aj_u0_x37 + aj_u2_x37 - a1_u0_x37 = 0
 c461: aj_u1_x37 + aj_u3_x37 - a1_u1_x37 = 0
 c462: aj_u0_x38 + aj_u2_x38 - a1_u0_x38 = 0
 c463: aj_u1_x38 + aj_u3_x38 - a1_u1_x38 = 0
 c464: aj_u0_x39 + aj_u2_x39 - a1_u0_x39 = 0
 c465: aj_u1_x39 + aj_u3_x39 - a1_u1_x39 = 0
 c466: aj_u0_x40 + aj_u2_x40 - a1_u0_x40 = 0
 c467: aj_u1_x40 + aj_u3_x40 - a1_u1_x40 = 0
 c468: aj_u0_x41 + aj_u2_x41 - a1_u0_x41 = 0
 c469: aj_u1_x41 + aj_u3_x41 - a1_u1_x41 = 0
 c470: aj_u0_x42 + aj_u2_x42 - a1_u0_x42 = 0
 c471: aj_u1_x42 + aj_u3_x42 - a1_u1_x42 = 0
 c472: aj_u0_x43 + aj_u2_x43 - a1_u0_x43 = 0
 c473: aj_u1_x43 + aj_u3_x43 - a1_u1_x43 = 0
 c474: aj_u0_x44 + aj_u2_x44 - a1_u0_x44 = 0
 c475: aj_u1_x44 + aj_u3_x44 - a1_u1_x44 = 0
 c476: aj_u0_x45 + aj_u2_x45 - a1_u0_x45 = 0
 c477: aj_u1_x45 + aj_u3_x45 - a1_u1_x45 = 0
 c478: aj_u0_x46 + aj_u2_x46 - a1_u0_x46 = 0
 c479: aj_u1_x46 + aj_u3_x46 - a1_u1_x46 = 0
 c480: aj_u0_x47 + aj_u2_x47 - a1_u0_x47 = 0
 c481: aj_u1_x47 + aj_u3_x47 - a1_u1_x47 = 0
 c482: aj_u0_x48 + aj_u2_x48 - a1_u0_x48 = 0
 c483: aj_u1_x48 + aj_u3_x48 - a1_u1_x48 = 0
 c484: aj_u0_x49 + aj_u2_x49 - a1_u0_x49 = 0
 c485: aj_u1_x49 + aj_u3_x49 - a1_u1_x49 = 0
 c486: aj_u0_x50 + aj_u2_x50 - a1_u0_x50 = 0
 c487: aj_u1_x50 + aj_u3_x50 - a1_u1_x50 = 0
 c488: aj_u0_x51 + aj_u2_x51 - a1_u0_x51 = 0
 c489: aj_u1_x51 + aj_u3_x51 - a1_u1_x51 = 0
 c490: aj_u0_x52 + aj_u2_x52 - a1_u0_x52 = 0
 c491: aj_u1_x52 + aj_u3_x52 - a1_u1_x52 = 0
 c492: aj_u0_x53 + aj_u2_x53 - a1_u0_x53 = 0
 c493: aj_u1_x53 + aj_u3_x53 - a1_u1_x53 = 0
 c494: aj_u0_x54 + aj_u2_x54 - a1_u0_x54 = 0
 c495: aj_u1_x54 + aj_u3_x54 - a1_u1_x54 = 0
 c496: aj_u0_x55 + aj_u2_x55 - a1_u0_x55 = 0
 c497: aj_u1_x55 + aj_u3_x55 - a1_u1_x55 = 0
 c498: aj_u0_x56 + aj_u2_x56 - a1_u0_x56 = 0
 c499: aj_u1_x56 + aj_u3_x56 - a1_u1_x56 = 0
 c500: aj_u0_x57 + aj_u2_x57 - a1_u0_x57 = 0
 c501: aj_u1_x57 + aj_u3_x57 - a1_u1_x57 = 0
 c502: aj_u0_x58 + aj_u2_x58 - a1_u0_x58 = 0
 c503: aj_u1_x58 + aj_u3_x58 - a1_u1_x58 = 0
 c504: aj_u0_x59 + aj_u2_x59 - a1_u0_x59 = 0
 c505: aj_u1_x59 + aj_u3_x59 - a1_u1_x59 = 0
 c506: aj_u0_x60 + aj_u2_x60 - a1_u0_x60 = 0
 c507: aj_u1_x60 + aj_u3_x60 - a1_u1_x60 = 0
 c508: aj_u0_x61 + aj_u2_x61 - a1_u0_x61 = 0
 c509: aj_u1_x61 + aj_u3_x61 - a1_u1_x61 = 0
 c510: aj_u0_x62 + aj_u2_x62 - a1_u0_x62 = 0
 c511: aj_u1_x62 + aj_u3_x62 - a1_u1_x62 = 0
 c512: aj_u0_x63 + aj_u2_x63 - a1_u0_x63 = 0
 c513: aj_u1_x63 + aj_u3_x63 - a1_u1_x63 = 0

Bounds
       a0_u0 <= 1
       a0_u1 <= 1
 0 <= a1_u0_x0 <= 1
 0 <= a1_u1_x0 <= 1
       aj_u0_x0 <= 1
       aj_u1_x0 <= 1
       aj_u2_x0 <= 1
       aj_u3_x0 <= 1
 0 <= a1_u0_x1 <= 1
 0 <= a1_u1_x1 <= 1
       aj_u0_x1 <= 1
       aj_u1_x1 <= 1
       aj_u2_x1 <= 1
       aj_u3_x1 <= 1
 0 <= a1_u0_x2 <= 1
 0 <= a1_u1_x2 <= 1
       aj_u0_x2 <= 1
       aj_u1_x2 <= 1
       aj_u2_x2 <= 1
       aj_u3_x2 <= 1
 0 <= a1_u0_x3 <= 1
 0 <= a1_u1_x3 <= 1
       aj_u0_x3 <= 1
       aj_u1_x3 <= 1
       aj_u2_x3 <= 1
       aj_u3_x3 <= 1
 0 <= a1_u0_x4 <= 1
 0 <= a1_u1_x4 <= 1
       aj_u0_x4 <= 1
       aj_u1_x4 <= 1
       aj_u2_x4 <= 1
       aj_u3_x4 <= 1
 0 <= a1_u0_x5 <= 1
 0 <= a1_u1_x5 <= 1
       aj_u0_x5 <= 1
       aj_u1_x5 <= 1
       aj_u2_x5 <= 1
       aj_u3_x5 <= 1
 0 <= a1_u0_x6 <= 1
 0 <= a1_u1_x6 <= 1
       aj_u0_x6 <= 1
       aj_u1_x6 <= 1
       aj_u2_x6 <= 1
       aj_u3_x6 <= 1
 0 <= a1_u0_x7 <= 1
 0 <= a1_u1_x7 <= 1
       aj_u0_x7 <= 1
       aj_u1_x7 <= 1
       aj_u2_x7 <= 1
       aj_u3_x7 <= 1
 0 <= a1_u0_x8 <= 1
 0 <= a1_u1_x8 <= 1
       aj_u0_x8 <= 1
       aj_u1_x8 <= 1
       aj_u2_x8 <= 1
       aj_u3_x8 <= 1
 0 <= a1_u0_x9 <= 1
 0 <= a1_u1_x9 <= 1
       aj_u0_x9 <= 1
       aj_u1_x9 <= 1
       aj_u2_x9 <= 1
       aj_u3_x9 <= 1
 0 <= a1_u0_x10 <= 1
 0 <= a1_u1_x10 <= 1
       aj_u0_x10 <= 1
       aj_u1_x10 <= 1
       aj_u2_x10 <= 1
       aj_u3_x10 <= 1
 0 <= a1_u0_x11 <= 1
 0 <= a1_u1_x11 <= 1
       aj_u0_x11 <= 1
       aj_u1_x11 <= 1
       aj_u2_x11 <= 1
       aj_u3_x11 <= 1
 0 <= a1_u0_x12 <= 1
 0 <= a1_u1_x12 <= 1
       aj_u0_x12 <= 1
       aj_u1_x12 <= 1
       aj_u2_x12 <= 1
       aj_u3_x12 <= 1
 0 <= a1_u0_x13 <= 1
 0 <= a1_u1_x13 <= 1
       aj_u0_x13 <= 1
       aj_u1_x13 <= 1
       aj_u2_x13 <= 1
       aj_u3_x13 <= 1
 0 <= a1_u0_x14 <= 1
 0 <= a1_u1_x14 <= 1
       aj_u0_x14 <= 1
       aj_u1_x14 <= 1
       aj_u2_x14 <= 1
       aj_u3_x14 <= 1
 0 <= a1_u0_x15 <= 1
 0 <= a1_u1_x15 <= 1
       aj_u0_x15 <= 1
       aj_u1_x15 <= 1
       aj_u2_x15 <= 1
       aj_u3_x15 <= 1
 0 <= a1_u0_x16 <= 1
 0 <= a1_u1_x16 <= 1
       aj_u0_x16 <= 1
       aj_u1_x16 <= 1
       aj_u2_x16 <= 1
       aj_u3_x16 <= 1
 0 <= a1_u0_x17 <= 1
 0 <= a1_u1_x17 <= 1
       aj_u0_x17 <= 1
       aj_u1_x17 <= 1
       aj_u2_x17 <= 1
       aj_u3_x17 <= 1
 0 <= a1_u0_x18 <= 1
 0 <= a1_u1_x18 <= 1
       aj_u0_x18 <= 1
       aj_u1_x18 <= 1
       aj_u2_x18 <= 1
       aj_u3_x18 <= 1
 0 <= a1_u0_x19 <= 1
 0 <= a1_u1_x19 <= 1
       aj_u0_x19 <= 1
       aj_u1_x19 <= 1
       aj_u2_x19 <= 1
       aj_u3_x19 <= 1
 0 <= a1_u0_x20 <= 1
 0 <= a1_u1_x20 <= 1
       aj_u0_x20 <= 1
       aj_u1_x20 <= 1
       aj_u2_x20 <= 1
       aj_u3_x20 <= 1
 0 <= a1_u0_x21 <= 1
 0 <= a1_u1_x21 <= 1
       aj_u0_x21 <= 1
       aj_u1_x21 <= 1
       aj_u2_x21 <= 1
       aj_u3_x21 <= 1
 0 <= a1_u0_x22 <= 1
 0 <= a1_u1_x22 <= 1
       aj_u0_x22 <= 1
       aj_u1_x22 <= 1
       aj_u2_x22 <= 1
       aj_u3_x22 <= 1
 0 <= a1_u0_x23 <= 1
 0 <= a1_u1_x23 <= 1
       aj_u0_x23 <= 1
       aj_u1_x23 <= 1
       aj_u2_x23 <= 1
       aj_u3_x23 <= 1
 0 <= a1_u0_x24 <= 1
 0 <= a1_u1_x24 <= 1
       aj_u0_x24 <= 1
       aj_u1_x24 <= 1
       aj_u2_x24 <= 1
       aj_u3_x24 <= 1
 0 <= a1_u0_x25 <= 1
 0 <= a1_u1_x25 <= 1
       aj_u0_x25 <= 1
       aj_u1_x25 <= 1
       aj_u2_x25 <= 1
       aj_u3_x25 <= 1
 0 <= a1_u0_x26 <= 1
 0 <= a1_u1_x26 <= 1
       aj_u0_x26 <= 1
       aj_u1_x26 <= 1
       aj_u2_x26 <= 1
       aj_u3_x26 <= 1
 0 <= a1_u0_x27 <= 1
 0 <= a1_u1_x27 <= 1
       aj_u0_x27 <= 1
       aj_u1_x27 <= 1
       aj_u2_x27 <= 1
       aj_u3_x27 <= 1
 0 <= a1_u0_x28 <= 1
 0 <= a1_u1_x28 <= 1
       aj_u0_x28 <= 1
       aj_u1_x28 <= 1
       aj_u2_x28 <= 1
       aj_u3_x28 <= 1
 0 <= a1_u0_x29 <= 1
 0 <= a1_u1_x29 <= 1
       aj_u0_x29 <= 1
       aj_u1_x29 <= 1
       aj_u2_x29 <= 1
       aj_u3_x29 <= 1
 0 <= a1_u0_x30 <= 1
 0 <= a1_u1_x30 <= 1
       aj_u0_x30 <= 1
       aj_u1_x30 <= 1
       aj_u2_x30 <= 1
       aj_u3_x30 <= 1
 0 <= a1_u0_x31 <= 1
 0 <= a1_u1_x31 <= 1
       aj_u0_x31 <= 1
       aj_u1_x31 <= 1
       aj_u2_x31 <= 1
       aj_u3_x31 <= 1
 0 <= a1_u0_x32 <= 1
 0 <= a1_u1_x32 <= 1
       aj_u0_x32 <= 1
       aj_u1_x32 <= 1
       aj_u2_x32 <= 1
       aj_u3_x32 <= 1
 0 <= a1_u0_x33 <= 1
 0 <= a1_u1_x33 <= 1
       aj_u0_x33 <= 1
       aj_u1_x33 <= 1
       aj_u2_x33 <= 1
       aj_u3_x33 <= 1
 0 <= a1_u0_x34 <= 1
 0 <= a1_u1_x34 <= 1
       aj_u0_x34 <= 1
       aj_u1_x34 <= 1
       aj_u2_x34 <= 1
       aj_u3_x34 <= 1
 0 <= a1_u0_x35 <= 1
 0 <= a1_u1_x35 <= 1
       aj_u0_x35 <= 1
       aj_u1_x35 <= 1
       aj_u2_x35 <= 1
       aj_u3_x35 <= 1
 0 <= a1_u0_x36 <= 1
 0 <= a1_u1_x36 <= 1
       aj_u0_x36 <= 1
       aj_u1_x36 <= 1
       aj_u2_x36 <= 1
       aj_u3_x36 <= 1
 0 <= a1_u0_x37 <= 1
 0 <= a1_u1_x37 <= 1
       aj_u0_x37 <= 1
       aj_u1_x37 <= 1
       aj_u2_x37 <= 1
       aj_u3_x37 <= 1
 0 <= a1_u0_x38 <= 1
 0 <= a1_u1_x38 <= 1
       aj_u0_x38 <= 1
       aj_u1_x38 <= 1
       aj_u2_x38 <= 1
       aj_u3_x38 <= 1
 0 <= a1_u0_x39 <= 1
 0 <= a1_u1_x39 <= 1
       aj_u0_x39 <= 1
       aj_u1_x39 <= 1
       aj_u2_x39 <= 1
       aj_u3_x39 <= 1
 0 <= a1_u0_x40 <= 1
 0 <= a1_u1_x40 <= 1
       aj_u0_x40 <= 1
       aj_u1_x40 <= 1
       aj_u2_x40 <= 1
       aj_u3_x40 <= 1
 0 <= a1_u0_x41 <= 1
 0 <= a1_u1_x41 <= 1
       aj_u0_x41 <= 1
       aj_u1_x41 <= 1
       aj_u2_x41 <= 1
       aj_u3_x41 <= 1
 0 <= a1_u0_x42 <= 1
 0 <= a1_u1_x42 <= 1
       aj_u0_x42 <= 1
       aj_u1_x42 <= 1
       aj_u2_x42 <= 1
       aj_u3_x42 <= 1
 0 <= a1_u0_x43 <= 1
 0 <= a1_u1_x43 <= 1
       aj_u0_x43 <= 1
       aj_u1_x43 <= 1
       aj_u2_x43 <= 1
       aj_u3_x43 <= 1
 0 <= a1_u0_x44 <= 1
 0 <= a1_u1_x44 <= 1
       aj_u0_x44 <= 1
       aj_u1_x44 <= 1
       aj_u2_x44 <= 1
       aj_u3_x44 <= 1
 0 <= a1_u0_x45 <= 1
 0 <= a1_u1_x45 <= 1
       aj_u0_x45 <= 1
       aj_u1_x45 <= 1
       aj_u2_x45 <= 1
       aj_u3_x45 <= 1
 0 <= a1_u0_x46 <= 1
 0 <= a1_u1_x46 <= 1
       aj_u0_x46 <= 1
       aj_u1_x46 <= 1
       aj_u2_x46 <= 1
       aj_u3_x46 <= 1
 0 <= a1_u0_x47 <= 1
 0 <= a1_u1_x47 <= 1
       aj_u0_x47 <= 1
       aj_u1_x47 <= 1
       aj_u2_x47 <= 1
       aj_u3_x47 <= 1
 0 <= a1_u0_x48 <= 1
 0 <= a1_u1_x48 <= 1
       aj_u0_x48 <= 1
       aj_u1_x48 <= 1
       aj_u2_x48 <= 1
       aj_u3_x48 <= 1
 0 <= a1_u0_x49 <= 1
 0 <= a1_u1_x49 <= 1
       aj_u0_x49 <= 1
       aj_u1_x49 <= 1
       aj_u2_x49 <= 1
       aj_u3_x49 <= 1
 0 <= a1_u0_x50 <= 1
 0 <= a1_u1_x50 <= 1
       aj_u0_x50 <= 1
       aj_u1_x50 <= 1
       aj_u2_x50 <= 1
       aj_u3_x50 <= 1
 0 <= a1_u0_x51 <= 1
 0 <= a1_u1_x51 <= 1
       aj_u0_x51 <= 1
       aj_u1_x51 <= 1
       aj_u2_x51 <= 1
       aj_u3_x51 <= 1
 0 <= a1_u0_x52 <= 1
 0 <= a1_u1_x52 <= 1
       aj_u0_x52 <= 1
       aj_u1_x52 <= 1
       aj_u2_x52 <= 1
       aj_u3_x52 <= 1
 0 <= a1_u0_x53 <= 1
 0 <= a1_u1_x53 <= 1
       aj_u0_x53 <= 1
       aj_u1_x53 <= 1
       aj_u2_x53 <= 1
       aj_u3_x53 <= 1
 0 <= a1_u0_x54 <= 1
 0 <= a1_u1_x54 <= 1
       aj_u0_x54 <= 1
       aj_u1_x54 <= 1
       aj_u2_x54 <= 1
       aj_u3_x54 <= 1
 0 <= a1_u0_x55 <= 1
 0 <= a1_u1_x55 <= 1
       aj_u0_x55 <= 1
       aj_u1_x55 <= 1
       aj_u2_x55 <= 1
       aj_u3_x55 <= 1
 0 <= a1_u0_x56 <= 1
 0 <= a1_u1_x56 <= 1
       aj_u0_x56 <= 1
       aj_u1_x56 <= 1
       aj_u2_x56 <= 1
       aj_u3_x56 <= 1
 0 <= a1_u0_x57 <= 1
 0 <= a1_u1_x57 <= 1
       aj_u0_x57 <= 1
       aj_u1_x57 <= 1
       aj_u2_x57 <= 1
       aj_u3_x57 <= 1
 0 <= a1_u0_x58 <= 1
 0 <= a1_u1_x58 <= 1
       aj_u0_x58 <= 1
       aj_u1_x58 <= 1
       aj_u2_x58 <= 1
       aj_u3_x58 <= 1
 0 <= a1_u0_x59 <= 1
 0 <= a1_u1_x59 <= 1
       aj_u0_x59 <= 1
       aj_u1_x59 <= 1
       aj_u2_x59 <= 1
       aj_u3_x59 <= 1
 0 <= a1_u0_x60 <= 1
 0 <= a1_u1_x60 <= 1
       aj_u0_x60 <= 1
       aj_u1_x60 <= 1
       aj_u2_x60 <= 1
       aj_u3_x60 <= 1
 0 <= a1_u0_x61 <= 1
 0 <= a1_u1_x61 <= 1
       aj_u0_x61 <= 1
       aj_u1_x61 <= 1
       aj_u2_x61 <= 1
       aj_u3_x61 <= 1
 0 <= a1_u0_x62 <= 1
 0 <= a1_u1_x62 <= 1
       aj_u0_x62 <= 1
       aj_u1_x62 <= 1
       aj_u2_x62 <= 1
       aj_u3_x62 <= 1
 0 <= a1_u0_x63 <= 1
 0 <= a1_u1_x63 <= 1
       aj_u0_x63 <= 1
       aj_u1_x63 <= 1
       aj_u2_x63 <= 1
       aj_u3_x63 <= 1

Binaries
 a1_u0_x0 a1_u1_x0 a1_u0_x1 a1_u1_x1 a1_u0_x2 a1_u1_x2 a1_u0_x3 a1_u1_x3
 a1_u0_x4 a1_u1_x4 a1_u0_x5 a1_u1_x5 a1_u0_x6 a1_u1_x6 a1_u0_x7 a1_u1_x7
 a1_u0_x8 a1_u1_x8 a1_u0_x9 a1_u1_x9 a1_u0_x10 a1_u1_x10 a1_u0_x11 a1_u1_x11
 a1_u0_x12 a1_u1_x12 a1_u0_x13 a1_u1_x13 a1_u0_x14 a1_u1_x14 a1_u0_x15 a1_u1_x15
 a1_u0_x16 a1_u1_x16 a1_u0_x17 a1_u1_x17 a1_u0_x18 a1_u1_x18 a1_u0_x19 a1_u1_x19
 a1_u0_x20 a1_u1_x20 a1_u0_x21 a1_u1_x21 a1_u0_x22 a1_u1_x22 a1_u0_x23 a1_u1_x23
 a1_u0_x24 a1_u1_x24 a1_u0_x25 a1_u1_x25 a1_u0_x26 a1_u1_x26 a1_u0_x27 a1_u1_x27
 a1_u0_x28 a1_u1_x28 a1_u0_x29 a1_u1_x29 a1_u0_x30 a1_u1_x30 a1_u0_x31 a1_u1_x31
 a1_u0_x32 a1_u1_x32 a1_u0_x33 a1_u1_x33 a1_u0_x34 a1_u1_x34 a1_u0_x35 a1_u1_x35
 a1_u0_x36 a1_u1_x36 a1_u0_x37 a1_u1_x37 a1_u0_x38 a1_u1_x38 a1_u0_x39 a1_u1_x39
 a1_u0_x40 a1_u1_x40 a1_u0_x41 a1_u1_x41 a1_u0_x42 a1_u1_x42 a1_u0_x43 a1_u1_x43
 a1_u0_x44 a1_u1_x44 a1_u0_x45 a1_u1_x45 a1_u0_x46 a1_u1_x46 a1_u0_x47 a1_u1_x47
 a1_u0_x48 a1_u1_x48 a1_u0_x49 a1_u1_x49 a1_u0_x50 a1_u1_x50 a1_u0_x51 a1_u1_x51
 a1_u0_x52 a1_u1_x52 a1_u0_x53 a1_u1_x53 a1_u0_x54 a1_u1_x54 a1_u0_x55 a1_u1_x55
 a1_u0_x56 a1_u1_x56 a1_u0_x57 a1_u1_x57 a1_u0_x58 a1_u1_x58 a1_u0_x59 a1_u1_x59
 a1_u0_x60 a1_u1_x60 a1_u0_x61 a1_u1_x61 a1_u0_x62 a1_u1_x62 a1_u0_x63 a1_u1_x63
End
